predicate gecode_cumulatives(array [int] of var int: s,array [int] of var int: d,array [int] of var int: r,var int: b);
predicate array_int_maximum(var int: m,array [int] of var int: x);
array [1..4] of int: X_INTRODUCED_8_ = [3,3,5,5];
array [1..4] of int: X_INTRODUCED_9_ = [3,5,3,5];
array [1..2] of int: X_INTRODUCED_23_ = [1,-1];
var 0..8: X_INTRODUCED_0_;
var 0..8: X_INTRODUCED_1_;
var 0..8: X_INTRODUCED_2_;
var 0..8: X_INTRODUCED_3_;
var 0..16: X_INTRODUCED_4_;
var 0..16: X_INTRODUCED_5_;
var 0..16: X_INTRODUCED_6_;
var 0..16: X_INTRODUCED_7_;
var 8..16: OptHeight:: output_var;
var 3..11: X_INTRODUCED_11_ ::var_is_introduced :: is_defined_var;
var 3..11: X_INTRODUCED_12_ ::var_is_introduced :: is_defined_var;
var 5..13: X_INTRODUCED_13_ ::var_is_introduced :: is_defined_var;
var 5..13: X_INTRODUCED_14_ ::var_is_introduced :: is_defined_var;
var 3..8: X_INTRODUCED_16_ ::var_is_introduced :: is_defined_var;
var 3..19: X_INTRODUCED_17_ ::var_is_introduced :: is_defined_var;
var 5..21: X_INTRODUCED_18_ ::var_is_introduced :: is_defined_var;
var 3..19: X_INTRODUCED_19_ ::var_is_introduced :: is_defined_var;
var 5..21: X_INTRODUCED_20_ ::var_is_introduced :: is_defined_var;
var 3..21: X_INTRODUCED_22_ ::var_is_introduced :: is_defined_var;
array [1..4] of var int: x_ith:: output_array([1..4]) = [X_INTRODUCED_0_,X_INTRODUCED_1_,X_INTRODUCED_2_,X_INTRODUCED_3_];
array [1..4] of var int: y_ith:: output_array([1..4]) = [X_INTRODUCED_4_,X_INTRODUCED_5_,X_INTRODUCED_6_,X_INTRODUCED_7_];
array [1..4] of var int: X_INTRODUCED_15_ ::var_is_introduced  = [X_INTRODUCED_11_,X_INTRODUCED_12_,X_INTRODUCED_13_,X_INTRODUCED_14_];
array [1..4] of var int: X_INTRODUCED_21_ ::var_is_introduced  = [X_INTRODUCED_17_,X_INTRODUCED_18_,X_INTRODUCED_19_,X_INTRODUCED_20_];
constraint gecode_cumulatives(y_ith,X_INTRODUCED_9_,X_INTRODUCED_8_,8);
constraint gecode_cumulatives(x_ith,X_INTRODUCED_8_,X_INTRODUCED_9_,16);
constraint array_int_maximum(X_INTRODUCED_16_,X_INTRODUCED_15_):: defines_var(X_INTRODUCED_16_);
constraint array_int_maximum(X_INTRODUCED_22_,X_INTRODUCED_21_):: defines_var(X_INTRODUCED_22_);
constraint int_lin_le(X_INTRODUCED_23_,[X_INTRODUCED_22_,OptHeight],0);
constraint int_lin_eq([1,-1],[X_INTRODUCED_0_,X_INTRODUCED_11_],-3):: defines_var(X_INTRODUCED_11_);
constraint int_lin_eq([1,-1],[X_INTRODUCED_1_,X_INTRODUCED_12_],-3):: defines_var(X_INTRODUCED_12_);
constraint int_lin_eq([1,-1],[X_INTRODUCED_2_,X_INTRODUCED_13_],-5):: defines_var(X_INTRODUCED_13_);
constraint int_lin_eq([1,-1],[X_INTRODUCED_3_,X_INTRODUCED_14_],-5):: defines_var(X_INTRODUCED_14_);
constraint int_lin_eq([1,-1],[X_INTRODUCED_4_,X_INTRODUCED_17_],-3):: defines_var(X_INTRODUCED_17_);
constraint int_lin_eq([1,-1],[X_INTRODUCED_5_,X_INTRODUCED_18_],-5):: defines_var(X_INTRODUCED_18_);
constraint int_lin_eq([1,-1],[X_INTRODUCED_6_,X_INTRODUCED_19_],-3):: defines_var(X_INTRODUCED_19_);
constraint int_lin_eq([1,-1],[X_INTRODUCED_7_,X_INTRODUCED_20_],-5):: defines_var(X_INTRODUCED_20_);
solve  satisfy;
